
#===========================================================
# GENERAL PROCEDURES
#===========================================================
units		real   # g/mol, angstroms, fs, kcal/mol, K, atm, charge*angstrom
dimension	3      # 3 dimensional simulation
newton		off 	# use Newton's 3rd law
boundary	p p p	# periodic boundary conditions
atom_style	full	# molecular + charge

#===========================================================
# DEFINE PAIR, BOND, AND ANGLE STYLES
#===========================================================
special_bonds   amber
pair_style      hybrid buck/coul/long 15.0 15.0 lj/cut/coul/long 15.0 15.0
pair_modify     shift yes mix arithmetic       # using Lorenz-Berthelot mixing rules
bond_style      harmonic
angle_style     harmonic
dihedral_style  opls
kspace_style    pppm 0.0001

#===========================================================
# SETUP SIMULATIONS
#===========================================================

# READ IN COEFFICIENTS/COORDINATES/TOPOLOGY
if "${run} == 0" then    "read_data ${data_name}" else    "read_restart ${restart_name}"
read_data ${data_name}
read_data NH3_1C_Angew-1+H_minimized_optimized.data
  orthogonal box = (-3.2 -43.7797 -3.2) to (22.4 43.7797 22.4)
  4 by 8 by 4 MPI processor grid
  reading atoms ...
  656 atoms
  scanning bonds ...
  4 = max bonds/atom
  scanning angles ...
  11 = max angles/atom
  scanning dihedrals ...
  21 = max dihedrals/atom
  reading bonds ...
  576 bonds
  reading angles ...
  960 angles
  reading dihedrals ...
  1248 dihedrals
  4 = max # of 1-2 neighbors
  7 = max # of 1-3 neighbors
  14 = max # of 1-4 neighbors
  16 = max # of special neighbors
  special bonds CPU = 0.650129 secs
  read_data CPU = 0.967354 secs
include ${settings_name}
include NH3_1C_Angew-1+H_minimized_optimized.in.settings
     # Non-bonded interactions (pair-wise)
     pair_coeff           1          1          lj/cut/coul/long      0.015000             2.599642
     pair_coeff           1          2          lj/cut/coul/long      0.015346             2.279809
     pair_coeff           1          3          lj/cut/coul/long      0.015346             1.834360
     pair_coeff           1          4          lj/cut/coul/long      2.447536             3.100000                    # I-H
     pair_coeff           1          5          lj/cut/coul/long      0.035917             2.999656
     pair_coeff           1          6          lj/cut/coul/long      0.035917             2.999656
     pair_coeff           1          7          lj/cut/coul/long      0.035917             2.999656
     pair_coeff           1          8          lj/cut/coul/long      0.040509             2.999656
     pair_coeff           1          9          lj/cut/coul/long      0.050498             2.924821
     pair_coeff           1          10         lj/cut/coul/long      0.596960             2.709990                    # Pb-H, HC, carbon
     pair_coeff           2          2          lj/cut/coul/long      0.015700             1.959977
     pair_coeff           2          3          lj/cut/coul/long      0.015700             1.514528
     pair_coeff           2          4          lj/cut/coul/long      2.447536             3.100000                    # I-H
     pair_coeff           2          5          lj/cut/coul/long      0.036745             2.679823
     pair_coeff           2          6          lj/cut/coul/long      0.036745             2.679823
     pair_coeff           2          7          lj/cut/coul/long      0.036745             2.679823
     pair_coeff           2          8          lj/cut/coul/long      0.041444             2.679823
     pair_coeff           2          9          lj/cut/coul/long      0.051662             2.604988
     pair_coeff           2          10         lj/cut/coul/long      0.596960             2.709990                    # Pb-H, HC, carbon
     pair_coeff           3          3          lj/cut/coul/long      0.015700             1.069078
     pair_coeff           3          4          lj/cut/coul/long      2.447536             2.750000                    # I-H, HN, nitrogen
     pair_coeff           3          5          lj/cut/coul/long      0.036745             2.234374
     pair_coeff           3          6          lj/cut/coul/long      0.036745             2.234374
     pair_coeff           3          7          lj/cut/coul/long      0.036745             2.234374
     pair_coeff           3          8          lj/cut/coul/long      0.041444             2.234374
     pair_coeff           3          9          lj/cut/coul/long      0.051662             2.159539
     pair_coeff           3          10         lj/cut/coul/long      0.596960             2.264540                    # # Pb-H, HN, nitrogen
     pair_coeff           4          4          buck/coul/long        22793.338580         0.482217             696.949542                  # I-I
     pair_coeff           4          5          buck/coul/long        112936.714213        0.342426             0.000000                    # I-C
     pair_coeff           4          6          buck/coul/long        112936.714213        0.342426             0.000000                    # I-C
     pair_coeff           4          7          buck/coul/long        112936.714213        0.342426             0.000000                    # I-C
     pair_coeff           4          8          buck/coul/long        112936.714213        0.342426             0.000000                    # I-C
     pair_coeff           4          9          buck/coul/long        112936.714213        0.342426             0.000000                    # I-N
     pair_coeff           4          10         buck/coul/long        103496.133010        0.321737             0.000000                    # Pb_I-I
     pair_coeff           5          5          lj/cut/coul/long      0.086000             3.399670
     pair_coeff           5          6          lj/cut/coul/long      0.086000             3.399670
     pair_coeff           5          7          lj/cut/coul/long      0.086000             3.399670
     pair_coeff           5          8          lj/cut/coul/long      0.096997             3.399670
     pair_coeff           5          9          lj/cut/coul/long      0.120913             3.324834
     pair_coeff           5          10         buck/coul/long        32690390.937995      0.150947             0.000000                    # Pb_I-C
     pair_coeff           6          6          lj/cut/coul/long      0.086000             3.399670
     pair_coeff           6          7          lj/cut/coul/long      0.086000             3.399670
     pair_coeff           6          8          lj/cut/coul/long      0.096997             3.399670
     pair_coeff           6          9          lj/cut/coul/long      0.120913             3.324834
     pair_coeff           6          10         buck/coul/long        32690390.937995      0.150947             0.000000                    # Pb_I-C
     pair_coeff           7          7          lj/cut/coul/long      0.086000             3.399670
     pair_coeff           7          8          lj/cut/coul/long      0.096997             3.399670
     pair_coeff           7          9          lj/cut/coul/long      0.120913             3.324834
     pair_coeff           7          10         buck/coul/long        32690390.937995      0.150947             0.000000                    # Pb_I-C
     pair_coeff           8          8          lj/cut/coul/long      0.109400             3.399670
     pair_coeff           8          9          lj/cut/coul/long      0.136374             3.324834
     pair_coeff           8          10         buck/coul/long        32690390.937995      0.150947             0.000000                    # Pb_I-C
     pair_coeff           9          9          lj/cut/coul/long      0.170000             3.249999
     pair_coeff           9          10         buck/coul/long        32690390.937995      0.150947             0.000000                    # Pb_I-N
     pair_coeff           10         10         buck/coul/long        70359906.629702      0.131258             0.000000                    # Pb_I-Pb_I

     # Stretching interactions
     bond_coeff           1           345.800000           1.086000
     bond_coeff           2           345.800000           1.086000
     bond_coeff           3           338.700000           1.091000
     bond_coeff           4           373.200000           1.030400
     bond_coeff           5           461.100000           1.398400
     bond_coeff           6           461.100000           1.398400
     bond_coeff           7           461.100000           1.398400
     bond_coeff           8           321.000000           1.515600
     bond_coeff           9           283.300000           1.511000

     # Bending interactions
     angle_coeff          1           48.180000            119.880000
     angle_coeff          2           48.180000            119.880000
     angle_coeff          3           48.180000            119.880000
     angle_coeff          4           48.180000            119.880000
     angle_coeff          5           39.220000            109.750000
     angle_coeff          6           46.620000            111.450000
     angle_coeff          7           48.650000            108.010000
     angle_coeff          8           40.580000            108.300000
     angle_coeff          9           45.850000            110.110000
     angle_coeff          10          66.620000            120.020000
     angle_coeff          11          66.620000            120.020000
     angle_coeff          12          66.620000            120.020000
     angle_coeff          13          66.620000            120.020000
     angle_coeff          14          63.530000            120.770000
     angle_coeff          15          64.770000            113.800000

     # Dihedral interactions
     dihedral_coeff       1           0.000000             7.250000             0.000000             0.000000
     dihedral_coeff       2           0.000000             7.250000             0.000000             0.000000
     dihedral_coeff       3           0.000000             7.250000             0.000000             0.000000
     dihedral_coeff       4           0.000000             7.250000             0.000000             0.000000
     dihedral_coeff       5           0.000000             7.250000             0.000000             0.000000
     dihedral_coeff       6           0.000000             7.250000             0.000000             0.000000
     dihedral_coeff       7           0.000000             7.250000             0.000000             0.000000
     dihedral_coeff       8           0.000000             7.250000             0.000000             0.000000
     dihedral_coeff       9           0.000000             0.000000             0.000000             0.000000
     dihedral_coeff       10          0.000000             0.000000             0.311111             0.000000
     dihedral_coeff       11          0.000000             0.000000             0.311111             0.000000
     dihedral_coeff       12          0.000000             7.250000             0.000000             0.000000
     dihedral_coeff       13          0.000000             7.250000             0.000000             0.000000
     dihedral_coeff       14          0.000000             7.250000             0.000000             0.000000
     dihedral_coeff       15          0.000000             7.250000             0.000000             0.000000
     dihedral_coeff       16          0.000000             0.000000             0.000000             0.000000

# SET RUN PARAMETERS
timestep	1.0		# fs
run_style	verlet 		# Velocity-Verlet integrator
neigh_modify every 1 delay 10 check yes one 10000

# SET OUTPUTS
thermo_style    custom step temp vol density etotal pe ebond eangle edihed ecoul elong evdwl enthalpy press
thermo_modify   format float %14.6f
thermo ${thermo_freq}
thermo 1000

# DECLARE RELEVANT OUTPUT VARIABLES
variable        my_step equal   step
variable        my_temp equal   temp
variable        my_rho  equal   density
variable        my_pe   equal   pe
variable        my_ebon equal   ebond
variable        my_eang equal   eangle
variable        my_edih equal   edihed
variable        my_evdw equal   evdwl
variable        my_eel  equal   (ecoul+elong)
variable        my_ent  equal   enthalpy
variable        my_P    equal   press
variable        my_vol  equal   vol

fix averages all ave/time ${dump4avg} $(v_avg_freq/v_dump4avg) ${avg_freq} v_my_temp v_my_rho v_my_vol v_my_pe v_my_edih v_my_evdw v_my_eel v_my_ent v_my_P file ${run}.thermo.avg
fix averages all ave/time 1 $(v_avg_freq/v_dump4avg) ${avg_freq} v_my_temp v_my_rho v_my_vol v_my_pe v_my_edih v_my_evdw v_my_eel v_my_ent v_my_P file ${run}.thermo.avg
fix averages all ave/time 1 1000 ${avg_freq} v_my_temp v_my_rho v_my_vol v_my_pe v_my_edih v_my_evdw v_my_eel v_my_ent v_my_P file ${run}.thermo.avg
fix averages all ave/time 1 1000 1000 v_my_temp v_my_rho v_my_vol v_my_pe v_my_edih v_my_evdw v_my_eel v_my_ent v_my_P file ${run}.thermo.avg
fix averages all ave/time 1 1000 1000 v_my_temp v_my_rho v_my_vol v_my_pe v_my_edih v_my_evdw v_my_eel v_my_ent v_my_P file 0.thermo.avg


# CREATE COORDINATE DUMPS FOR NVE RELAXATION
dump relax all custom ${coords_freq} ${run}.nve.1.lammpstrj id type x y z
dump relax all custom 1000 ${run}.nve.1.lammpstrj id type x y z
dump relax all custom 1000 0.nve.1.lammpstrj id type x y z
dump_modify relax sort  id

# INITIALIZE VELOCITIES AND CREATE THE CONSTRAINED RELAXATION FIX
if "${run} == 0" then "velocity        all create ${Temp} ${vseed1} mom yes rot yes     # DRAW VELOCITIES" "fix relax all nve/limit 0.01" "run             10000" "unfix relax" "undump relax"
velocity        all create ${Temp} ${vseed1} mom yes rot yes     # DRAW VELOCITIES
velocity        all create 298.0 ${vseed1} mom yes rot yes     
velocity        all create 298.0 52967 mom yes rot yes     
fix relax all nve/limit 0.01
run             10000
PPPM initialization ...
  using 12-bit tables for long-range coulomb (src/kspace.cpp:332)
  G vector (1/distance) = 0.15861
  grid = 8 18 8
  stencil order = 5
  estimated absolute RMS force accuracy = 0.0216358
  estimated relative force accuracy = 6.51555e-05
  using double precision KISS FFT
  3d grid and FFT values/proc = 392 16
Neighbor list info ...
  update every 1 steps, delay 10 steps, check yes
  max neighbors/atom: 10000, page size: 100000
  master list distance cutoff = 17
  ghost atom cutoff = 17
  binsize = 8.5, bins = 4 11 4
  3 neighbor lists, perpetual/occasional/extra = 3 0 0
  (1) pair buck/coul/long, perpetual, skip from (3)
      attributes: half, newton off
      pair build: skip
      stencil: none
      bin: none
  (2) pair lj/cut/coul/long, perpetual, skip from (3)
      attributes: half, newton off
      pair build: skip
      stencil: none
      bin: none
  (3) neighbor class addition, perpetual
      attributes: half, newton off
      pair build: half/bin/newtoff
      stencil: half/bin/3d/newtoff
      bin: standard
Per MPI rank memory allocation (min/avg/max) = 19.58 | 19.73 | 20.1 Mbytes
Step Temp Volume Density TotEng PotEng E_bond E_angle E_dihed E_coul E_long E_vdwl Enthalpy Press 
       0     298.000000   57382.899195       0.431122   -8970.011871   -9551.836184      18.560582      22.998292       4.401131   -5716.601650   -4576.398885     695.204344   -3629.225159    6381.853911 
    1000      87.041336   57382.899195       0.431122  -10830.818724  -11000.760891      11.119422      25.150527      17.545396   -5957.773101   -4643.197011    -453.606124  -12028.723610   -1431.409714 
    2000      74.401083   57382.899195       0.431122  -10932.464458  -11077.727407      10.570374      27.540509      19.285015   -6049.897497   -4645.407061    -439.818746  -11592.900675    -789.173521 
    3000      61.889487   57382.899195       0.431122  -10978.026295  -11098.861222       9.497675      27.275987      17.524924   -6037.926435   -4644.951688    -470.281686  -11575.391267    -713.807945 
    4000      54.543724   57382.899195       0.431122  -11012.296783  -11118.789618       9.391593      29.448442      20.693358   -6050.319181   -4646.637510    -481.366321  -11496.126776    -578.141854 
    5000      51.704422   57382.899195       0.431122  -11033.313005  -11134.262299       8.751705      27.898422      15.363915   -6074.893177   -4645.298399    -466.084763  -11532.807580    -596.859897 
    6000      50.584969   57382.899195       0.431122  -11049.962862  -11148.726504       7.648412      26.277158      19.649240   -6062.281972   -4646.162310    -493.857032  -11536.976480    -581.946056 
    7000      45.165472   57382.899195       0.431122  -11063.678385  -11151.860834       8.105622      27.615714      17.195648   -6085.532282   -4645.419341    -473.826195  -11511.092810    -534.627884 
    8000      43.505029   57382.899195       0.431122  -11074.698021  -11159.638570       8.858799      29.801457      19.268499   -6085.382890   -4645.677244    -486.507191  -11546.499648    -563.768827 
    9000      39.698161   57382.899195       0.431122  -11083.539341  -11161.047245       9.089974      27.960792      17.949954   -6075.586767   -4646.404459    -494.056739  -11660.014685    -688.846350 
   10000      39.159048   57382.899195       0.431122  -11092.157230  -11168.612552       9.507797      29.009239      14.036368   -6098.775295   -4645.390525    -477.000136  -11742.984606    -777.691651 
Loop time of 9.81674 on 128 procs for 10000 steps with 656 atoms

Performance: 88.013 ns/day, 0.273 hours/ns, 1018.668 timesteps/s
99.9% CPU use with 128 MPI tasks x 1 OpenMP threads

MPI task timing breakdown:
Section |  min time  |  avg time  |  max time  |%varavg| %total
---------------------------------------------------------------
Pair    | 0.0025725  | 1.0262     | 4.4885     | 175.2 | 10.45
Bond    | 0.0012238  | 0.063044   | 0.26727    |  42.6 |  0.64
Kspace  | 3.0656     | 7.1701     | 8.9722     |  79.7 | 73.04
Neigh   | 0.036293   | 0.047592   | 0.061401   |   4.3 |  0.48
Comm    | 0.0045447  | 0.73062    | 1.3178     |  54.9 |  7.44
Output  | 0.007967   | 0.0079889  | 0.0080331  |   0.0 |  0.08
Modify  | 0.69588    | 0.70045    | 0.70524    |   0.2 |  7.14
Other   |            | 0.07075    |            |       |  0.72

Nlocal:    5.125 ave 24 max 0 min
Histogram: 96 0 0 0 0 0 0 9 15 8
Nghost:    890.914 ave 1741 max 0 min
Histogram: 32 12 20 0 0 0 0 0 32 32
Neighs:    452.602 ave 2864 max 0 min
Histogram: 96 0 0 0 7 12 3 2 6 2

Total # of neighbors = 57933
Ave neighs/atom = 88.3125
Ave special neighs/atom = 8.19512
Neighbor list builds = 75
Dangerous builds = 0
unfix relax
undump relax

#===========================================================
# RUN PRODUCTION
#===========================================================

# UPDATE RUN PARAMETERS AND CREATE FIX
fix mom all momentum 1000 linear 1 1 1 angular # Zero out system linear and angular momentum every ps

# NPT equilibration, x and z direction to accomodate any lattice changes
fix equil all npt temp ${Temp} ${Temp} 100.0 x ${pressure} ${pressure} 1000.0 z ${pressure} ${pressure} 1000.0  # NPT, nose-hoover 100 fs T relaxation
fix equil all npt temp 298.0 ${Temp} 100.0 x ${pressure} ${pressure} 1000.0 z ${pressure} ${pressure} 1000.0  
fix equil all npt temp 298.0 298.0 100.0 x ${pressure} ${pressure} 1000.0 z ${pressure} ${pressure} 1000.0  
fix equil all npt temp 298.0 298.0 100.0 x 1.0 ${pressure} 1000.0 z ${pressure} ${pressure} 1000.0  
fix equil all npt temp 298.0 298.0 100.0 x 1.0 1.0 1000.0 z ${pressure} ${pressure} 1000.0  
fix equil all npt temp 298.0 298.0 100.0 x 1.0 1.0 1000.0 z 1.0 ${pressure} 1000.0  
fix equil all npt temp 298.0 298.0 100.0 x 1.0 1.0 1000.0 z 1.0 1.0 1000.0  
dump equil all custom ${coords_freq} ${run}.npt.lammpstrj id type x y z
dump equil all custom 1000 ${run}.npt.lammpstrj id type x y z
dump equil all custom 1000 0.npt.lammpstrj id type x y z
dump_modify equil sort  id

# RUN NPT
run		${nSteps_NPT}
run		100000
PPPM initialization ...
  using 12-bit tables for long-range coulomb (src/kspace.cpp:332)
  G vector (1/distance) = 0.15861
  grid = 8 18 8
  stencil order = 5
  estimated absolute RMS force accuracy = 0.0216358
  estimated relative force accuracy = 6.51555e-05
  using double precision KISS FFT
  3d grid and FFT values/proc = 392 16
Neighbor list info ...
  update every 1 steps, delay 10 steps, check yes
  max neighbors/atom: 10000, page size: 100000
  master list distance cutoff = 17
  ghost atom cutoff = 17
  binsize = 8.5, bins = 4 11 4
  3 neighbor lists, perpetual/occasional/extra = 3 0 0
  (1) pair buck/coul/long, perpetual, skip from (3)
      attributes: half, newton off
      pair build: skip
      stencil: none
      bin: none
  (2) pair lj/cut/coul/long, perpetual, skip from (3)
      attributes: half, newton off
      pair build: skip
      stencil: none
      bin: none
  (3) neighbor class addition, perpetual
      attributes: half, newton off
      pair build: half/bin/newtoff
      stencil: half/bin/3d/newtoff
      bin: standard
Per MPI rank memory allocation (min/avg/max) = 19.58 | 19.73 | 20.1 Mbytes
Step Temp Volume Density TotEng PotEng E_bond E_angle E_dihed E_coul E_long E_vdwl Enthalpy Press 
   10000      39.159048   57382.899195       0.431122  -11092.157230  -11168.612552       9.507797      29.009239      14.036368   -6098.775295   -4645.390525    -477.000136  -11742.984606    -777.691651 
   11000      95.008887   56240.848360       0.439877  -10808.694256  -10994.192513      15.590398      43.368795      32.462048   -6122.679775   -4640.130991    -322.802988  -11081.981581    -333.189831 
   12000     285.941024   59164.264512       0.418142  -10018.079010  -10576.359010      35.022128     108.836366     108.417079   -5919.747075   -4643.199396    -265.688111   -9881.587499     158.186816 
   13000     313.217352   55681.580766       0.444295   -9995.922354  -10607.457491      53.468409     128.520158     104.309753   -6056.905204   -4635.650896    -201.199712   -9915.444509      99.103478 
   14000     276.702626   56385.346316       0.438750  -10059.381732  -10599.624401      75.308842     133.377623     106.590009   -6075.279828   -4641.607091    -198.013956   -9760.584539     363.357703 
   15000     288.795607   56358.195781       0.438961  -10026.889151  -10590.742526      83.878673     142.672484     106.520203   -6039.223495   -4636.768006    -247.822384   -9846.930899     218.946897 
   16000     299.977505   55632.980039       0.444683  -10048.758202  -10634.443456      97.235228     146.483512      92.707666   -6055.204560   -4638.082931    -277.582370  -10144.177745    -117.605903 
   17000     302.712393   56638.471247       0.436789  -10035.888866  -10626.913799     102.643149     131.953896     100.625861   -6049.625123   -4637.611265    -274.900318  -10334.890468    -361.981272 
   18000     299.937125   56197.440229       0.440217  -10038.054152  -10623.660569      93.186286     167.674116     110.902787   -6042.766098   -4638.510496    -314.147163   -9901.622329     166.465124 
   19000     294.333358   55029.418069       0.449560  -10080.568146  -10655.233595     111.134252     161.510409      95.325381   -6081.406446   -4640.954886    -300.842306   -9983.067676     121.488703 
   20000     295.009662   54193.506642       0.456495  -10058.527203  -10634.513089     124.475943     157.787015     101.921384   -6110.033686   -4633.508209    -275.155536  -10358.396490    -379.410062 
   21000     326.008093   54707.954082       0.452202  -10017.155813  -10653.663984     121.553275     151.383656     105.135379   -6121.221380   -4638.128573    -272.386341   -9602.075915     520.241912 
   22000     301.420720   54575.512098       0.453299  -10051.046357  -10639.549389     138.665049     170.910614     107.919566   -6125.706285   -4638.884208    -292.454124  -10018.024450      41.488568 
   23000     302.026948   54721.635696       0.452089  -10068.440915  -10658.127565     132.127399     162.348156     113.560556   -6165.172609   -4636.548268    -264.442799   -9912.157529     195.829382 
   24000     293.870667   54442.033384       0.454411  -10068.561020  -10642.323098     151.332395     170.920098     110.232823   -6121.978318   -4641.943602    -310.886493  -10294.130499    -284.099265 
   25000     289.453399   54442.110666       0.454410  -10095.157714  -10660.295383     142.702017     175.102017     101.513833   -6096.145306   -4642.654718    -340.813226   -9898.090856     248.200555 
   26000     302.460830   54349.307210       0.455186  -10046.045042  -10636.578816     155.743256     157.957385     110.427465   -6134.283039   -4639.678818    -286.745065  -10280.288353    -295.527089 
   27000     284.618282   54302.406633       0.455579  -10059.350570  -10615.048008     162.534871     180.643049     119.847172   -6123.619557   -4639.692906    -314.760637  -10215.868936    -197.637949 
   28000     309.588578   54980.752331       0.449958  -10017.463849  -10621.914056     162.920471     185.013286     102.869939   -6103.923007   -4638.791294    -330.003452  -10324.690127    -383.152613 
   29000     288.051270   54146.019715       0.456895  -10083.130697  -10645.530806     159.693721     197.278574     111.533198   -6162.973706   -4637.967105    -313.095490  -10104.704996     -27.320855 
   30000     288.515555   54571.938627       0.453329  -10068.146982  -10631.453574     166.091447     185.754617     108.451655   -6132.412566   -4639.580584    -319.758143  -10282.333145    -269.120103 
   31000     297.818497   55133.424740       0.448712  -10047.638397  -10629.108339     175.901218     190.937125     102.379963   -6062.624077   -4641.995762    -393.706806  -10365.685576    -395.549361 
   32000     300.690857   54218.062304       0.456288  -10039.984415  -10627.062440     175.705294     181.643438      96.590416   -6170.180342   -4639.153426    -271.667821  -10116.111039     -96.275700 
   33000     292.759546   54285.245480       0.455723  -10088.592338  -10660.185029     166.719374     169.217454     120.897923   -6140.865539   -4640.968796    -335.185445  -10010.851364      98.195658 
   34000     292.646143   54184.925358       0.456567  -10080.372965  -10651.744244     175.273004     171.178116     109.830091   -6157.674267   -4638.402908    -311.948281  -10041.488060      49.206976 
   35000     300.878245   53956.017358       0.458504  -10055.232894  -10642.676781     180.779966     194.103550      99.515390   -6175.083577   -4639.118407    -302.873703  -10301.067771    -312.412010 
   36000     308.653078   53794.007439       0.459885  -10027.361456  -10629.985164     173.784786     177.834641     117.251459   -6183.182151   -4639.052915    -276.620984   -9791.465063     300.684826 
   37000     294.693704   54057.279197       0.457645  -10079.219514  -10654.588515     163.289889     189.171570     103.517828   -6171.290167   -4637.614596    -301.663039  -10229.862077    -191.081052 
   38000     294.365657   53543.915199       0.462033  -10085.675331  -10660.403843     162.085126     186.708324      89.011379   -6200.294044   -4635.104289    -262.810339  -10238.199560    -195.322747 
   39000     318.704949   53670.589014       0.460942   -9978.402890  -10600.652179     175.668998     207.204335     113.911660   -6132.359491   -4639.005917    -326.071765   -9754.478241     286.081419 
   40000     301.302738   53575.952415       0.461757  -10033.825312  -10622.097992     187.494621     183.898944     114.736939   -6188.826874   -4638.627528    -280.774095   -9783.835392     319.946017 
   41000     290.879140   53536.149902       0.462100  -10077.463044  -10645.384373     178.275938     198.361910      99.158624   -6173.707962   -4637.295294    -310.177588  -10298.312105    -282.860649 
   42000     295.916070   53658.772643       0.461044  -10038.549265  -10616.304850     195.054035     197.179830     121.337207   -6187.864382   -4638.965851    -303.045688  -10080.785484     -53.971987 
   43000     287.493172   53796.638353       0.459862  -10087.656225  -10648.966686     170.202148     197.038237      96.630412   -6192.310373   -4641.016438    -279.510673   -9988.514192     126.364997 
   44000     312.761061   53688.872149       0.460785  -10010.667538  -10621.311799     162.622912     205.773917     101.628867   -6164.240982   -4637.431518    -289.664994   -9488.033863     667.478404 
   45000     290.358133   53801.612757       0.459820  -10086.670839  -10653.574938     165.399642     193.911113      89.840130   -6199.290782   -4635.698860    -267.736180  -10049.262967      47.675123 
   46000     280.883016   53308.251860       0.464075  -10112.357980  -10660.762570     178.930740     176.095299      94.374885   -6184.882047   -4635.645246    -289.636201  -10309.661896    -253.784665 
   47000     292.341304   52615.227061       0.470188  -10093.177421  -10663.953524     186.901712     185.696495      86.156416   -6227.624709   -4634.805497    -260.277942   -9879.938764     277.893636 
   48000     303.637796   53362.284014       0.463606  -10088.171645  -10681.003365     170.677464     187.890576      96.605430   -6209.359630   -4639.547488    -287.269717   -9877.988882     270.076501 
   49000     301.401011   53072.644623       0.466136  -10057.601851  -10646.066402     190.464373     201.264600     102.089469   -6192.416451   -4637.768768    -309.699624  -10166.333952    -140.478921 
   50000     290.696756   53993.254099       0.458188  -10077.128952  -10644.694188     184.817646     195.360864      97.108101   -6155.160054   -4637.807315    -329.013430  -10382.106822    -387.304850 
   51000     284.144311   53044.123747       0.466386  -10092.065474  -10646.837517     181.467559     200.739577      89.573826   -6236.251475   -4637.095763    -245.271242   -9690.145623     519.548730 
   52000     304.565131   53864.496264       0.459283  -10081.808708  -10676.450985     181.766512     190.013760      90.684028   -6157.521819   -4638.241455    -343.152011  -10275.401756    -246.440037 
   53000     292.555054   53226.244016       0.464790  -10099.034489  -10670.227923     178.986137     177.445736      93.466000   -6195.036253   -4635.467151    -289.622391  -10143.260255     -56.973598 
   54000     296.069974   52738.217149       0.469092  -10034.834941  -10612.891013     194.032972     197.186109      97.440457   -6208.955166   -4637.251159    -255.344225   -9811.462268     290.421462 
   55000     282.495323   53301.046344       0.464138  -10103.400043  -10654.952550     183.256963     192.608467     111.046924   -6208.170808   -4637.726727    -295.967370  -10292.241774    -242.932908 
   56000     288.826955   52850.415511       0.468096  -10098.429438  -10662.344019     173.490895     182.744189      97.914720   -6211.354442   -4633.764137    -271.375245  -10166.281975     -88.032249 
   57000     291.483597   53456.147805       0.462792  -10091.323845  -10660.425334     170.968721     187.569922     103.435230   -6193.112093   -4638.337780    -290.949333  -10052.465594      49.843634 
   58000     299.857529   54363.836713       0.455064  -10055.792057  -10641.243067     170.567668     192.588478      99.216735   -6167.722649   -4636.267739    -299.625560  -10179.587908    -156.142131 
   59000     301.803943   52803.886798       0.468508  -10057.727408  -10646.978657     165.118963     202.975845     107.423135   -6231.771561   -4638.514364    -252.210674   -9563.120775     642.270767 
   60000     283.166281   53365.967468       0.463574  -10103.435781  -10656.298288     169.450008     181.595260     100.166275   -6145.187754   -4639.609213    -322.712865  -10046.308764      73.400881 
   61000     291.673335   53318.215597       0.463989  -10075.658558  -10645.130496     190.546836     184.981537     103.528985   -6196.603452   -4637.564044    -290.020359  -10145.989802     -90.447549 
   62000     305.700994   52910.678934       0.467563  -10067.804956  -10664.664926     158.276180     196.804988      94.283274   -6222.290830   -4632.967911    -258.770626   -9540.102847     683.863786 
   63000     280.398810   53196.553165       0.465050  -10115.444016  -10662.903228     189.491681     204.358981      96.905964   -6212.815540   -4637.308997    -303.535316  -10177.204629     -79.607176 
   64000     285.165813   53527.752051       0.462172  -10091.189551  -10647.956005     176.667735     209.207939     106.477371   -6165.821054   -4637.471286    -337.016709  -10269.201424    -228.031097 
   65000     306.552078   53417.658620       0.463125  -10038.048066  -10636.569719     188.847574     202.631155      92.141517   -6199.758571   -4635.550093    -284.881301  -10065.387530     -35.093707 
   66000     294.502290   53459.195661       0.462765  -10091.284093  -10666.279372     153.512280     194.168176      99.523899   -6172.934391   -4635.423765    -305.125571  -10039.464875      66.464929 
   67000     293.015083   53386.424175       0.463396  -10076.922547  -10649.014157     178.831446     199.887605      99.637514   -6176.388129   -4637.317705    -313.664888  -10101.470283     -31.528602 
   68000     315.794014   53157.590858       0.465391  -10023.735675  -10640.301567     170.484259     207.770048     105.126792   -6199.122907   -4635.991070    -288.568688   -9454.779662     733.901055 
   69000     309.909552   53620.621008       0.461372  -10045.362608  -10650.439494     178.592920     196.768923     103.048716   -6163.937193   -4637.684589    -327.228271  -10411.228536    -467.858192 
   70000     298.241292   53145.235170       0.465499  -10082.002719  -10664.298139     179.432512     202.386966      91.414697   -6235.133445   -4635.684502    -266.714366   -9983.842358     126.647297 
   71000     282.866374   53437.821152       0.462950  -10108.577133  -10660.854092     169.118986     208.994077     104.696801   -6208.196433   -4636.217968    -299.249557  -10071.207001      47.951257 
   72000     287.842857   53103.030248       0.465869  -10118.747353  -10680.740549     183.242750     196.902885     100.579804   -6230.664737   -4637.454848    -293.346404  -10314.570046    -252.852833 
   73000     295.530297   53764.038105       0.460141  -10070.316112  -10647.318502     190.530041     197.413228     103.328765   -6176.753023   -4638.098753    -323.738760  -10641.598677    -728.589990 
   74000     285.494219   53595.131115       0.461591  -10096.971485  -10654.379129     194.818735     181.159278      90.367781   -6177.564867   -4636.785048    -306.375008  -10470.454724    -477.826123 
   75000     307.753643   53684.203235       0.460826  -10032.994164  -10633.861788     181.655125     210.100345     105.132676   -6185.799887   -4636.943464    -308.006582   -9908.745166     158.697650 
   76000     293.476767   53365.478248       0.463578  -10082.352513  -10655.345527     179.577118     183.136949     107.614401   -6204.195835   -4636.679883    -284.798278   -9982.472391     128.334306 
   77000     286.475124   53060.232431       0.466245  -10116.933421  -10676.256214     169.464893     199.456558      97.081311   -6211.740614   -4636.381455    -294.136907  -10097.919278      24.571503 
   78000     307.547614   53708.906584       0.460614  -10049.661429  -10650.126796     169.815692     194.350616      95.174492   -6149.709472   -4639.088790    -320.669334  -10082.110575     -41.426769 
   79000     295.490430   53480.491287       0.462581  -10071.917344  -10648.841896     168.968767     213.624627     101.520342   -6204.842823   -4637.479592    -290.633217   -9907.970406     210.199671 
   80000     297.828630   52686.976212       0.469548  -10106.657566  -10688.147292     172.726631     184.321707     101.710304   -6251.081280   -4636.011838    -259.812817   -9855.859304     326.396399 
   81000     284.032896   53381.152897       0.463442  -10128.042068  -10682.596581     186.563752     186.041293      83.201858   -6215.652186   -4637.745499    -285.005799  -10262.190103    -172.313966 
   82000     305.545184   53125.449478       0.465672  -10065.497746  -10662.053507     191.703299     177.080550      94.276338   -6183.607394   -4636.531034    -304.975266  -10123.935667     -75.425161 
   83000     296.511586   53403.574086       0.463247  -10079.079437  -10657.997726     192.931915     185.058949     101.834597   -6210.321460   -4638.521341    -288.980387  -10098.189207     -24.536309 
   84000     305.561005   53206.660921       0.464962  -10099.495989  -10696.082639     190.606205     160.717866      94.090481   -6221.879028   -4639.353589    -280.264575  -10197.415280    -126.190415 
   85000     279.187648   53157.800293       0.465389  -10073.440131  -10618.534633     185.183204     190.611139     110.448002   -6195.558745   -4637.132747    -272.085486   -9759.956255     404.363845 
   86000     296.564450   52963.317199       0.467098  -10114.318655  -10693.340157     174.405239     174.811753      88.634989   -6206.967105   -4636.378991    -287.846043   -9777.898625     435.542739 
   87000     309.852008   52907.527376       0.467590  -10028.436392  -10633.400929     188.139595     183.901171     127.194319   -6194.886081   -4637.489734    -300.260201  -10427.481691    -517.164664 
   88000     284.342652   53500.513405       0.462408  -10106.015016  -10661.174306     179.208917     182.040901      97.449726   -6189.484579   -4638.893797    -291.495475   -9976.761134     165.656987 
   89000     309.638808   53455.343245       0.462798  -10011.370103  -10615.918380     186.258261     196.683157     119.428302   -6204.690543   -4637.478100    -276.119458   -9975.999506      45.370689 
   90000     304.128337   53594.662783       0.461595  -10070.295623  -10664.085089     184.536580     181.131590      98.873554   -6150.636753   -4637.461839    -340.528220  -10497.960180    -547.149275 
   91000     305.917484   53592.181588       0.461617  -10066.760550  -10664.043201     185.691329     193.059051      80.357059   -6201.275919   -4638.336641    -283.538080   -9564.421803     642.716357 
   92000     291.089958   53258.609017       0.464508  -10124.152595  -10692.485531     165.466882     185.142636     101.259064   -6201.009943   -4639.396758    -303.947412  -10089.233842      44.956554 
   93000     300.654439   52743.871630       0.469041  -10060.526648  -10647.533570     187.322669     214.168114      95.033414   -6249.423077   -4635.232845    -259.401844  -10043.354209      22.324621 
   94000     289.121145   53527.750950       0.462172  -10109.436273  -10673.925239     174.016985     199.209297     100.765710   -6195.100975   -4639.581530    -313.234726  -10118.372342     -11.446998 
   95000     290.818631   54381.434598       0.454917  -10116.328596  -10684.131785     167.762583     180.262926      88.596172   -6142.082185   -4640.118256    -338.553026  -10159.641258     -54.612030 
   96000     293.723570   53082.675225       0.466048  -10045.216342  -10618.691224     189.093996     205.904452     114.949969   -6253.925038   -4636.932839    -237.781764  -10003.319479      54.119380 
   97000     305.174137   53443.271513       0.462903  -10072.862707  -10668.694025     180.968553     180.363554      86.609082   -6188.780035   -4637.579841    -290.275339   -9712.509349     462.338062 
   98000     301.677504   54073.128579       0.457511  -10046.583400  -10635.587784     169.823638     199.579987     104.519797   -6173.880003   -4638.882014    -296.749190  -10052.101756      -6.997652 
   99000     297.249355   53296.246755       0.464180  -10085.268589  -10665.627321     163.296172     197.429536      93.701907   -6200.760028   -4635.915105    -283.379803  -10172.766613    -112.570794 
  100000     304.060681   53419.556354       0.463109  -10052.501790  -10646.159163     186.885308     180.958614     101.437034   -6206.448622   -4636.670392    -272.321106  -10149.182936    -124.098241 
  101000     292.632288   53351.946221       0.463695  -10040.949228  -10612.293455     205.201601     200.844680      95.135389   -6189.209032   -4633.849673    -290.416420  -10604.351788    -724.090185 
  102000     306.422105   53105.981739       0.465843  -10095.151081  -10693.418971     168.297493     174.002726     118.160799   -6207.489678   -4638.746593    -307.643717  -10273.507945    -230.287569 
  103000     293.213479   53645.210740       0.461160  -10089.151773  -10661.630738     166.992453     191.335037      85.205476   -6170.982442   -4636.356161    -297.825101   -9935.605776     196.259937 
  104000     299.408002   53344.370314       0.463761  -10089.258171  -10673.831511     176.832296     172.290696     109.022546   -6202.510006   -4637.295674    -292.171368   -9959.722173     166.504506 
  105000     298.802314   53570.141542       0.461807  -10069.065815  -10652.456591     177.787083     192.999164      97.887140   -6196.038386   -4636.949486    -288.142106   -9795.608098     350.018904 
  106000     304.433423   53540.145612       0.462065  -10077.391850  -10671.776976     156.919761     197.073103      97.830951   -6190.204085   -4638.220422    -295.176284  -10356.411285    -357.337848 
  107000     289.298913   53806.588184       0.459777  -10100.391044  -10665.227089     169.354388     198.093484     103.716887   -6202.306099   -4639.375325    -294.710424   -9978.470233     155.369762 
  108000     306.124111   53588.813914       0.461646  -10041.442044  -10639.128121     186.674834     197.318123      91.640506   -6230.378984   -4635.620103    -248.762497  -10054.127516     -16.231422 
  109000     316.209374   52933.172942       0.467364  -10052.288225  -10669.665076     170.469115     188.907168     106.055930   -6241.821519   -4635.644940    -257.630830   -9912.056958     181.652358 
  110000     297.770869   52941.651564       0.467289  -10083.817560  -10665.194512     177.355382     203.916596     106.568696   -6191.973774   -4639.883822    -321.177590   -9865.737707     282.450385 
Loop time of 116.375 on 128 procs for 100000 steps with 656 atoms

Performance: 74.243 ns/day, 0.323 hours/ns, 859.293 timesteps/s
99.9% CPU use with 128 MPI tasks x 1 OpenMP threads

MPI task timing breakdown:
Section |  min time  |  avg time  |  max time  |%varavg| %total
---------------------------------------------------------------
Pair    | 0.025964   | 10.936     | 48.677     | 573.1 |  9.40
Bond    | 0.012468   | 0.79265    | 3.4626     | 152.0 |  0.68
Kspace  | 35.006     | 80.071     | 99.039     | 254.3 | 68.80
Neigh   | 1.4223     | 1.7932     | 2.2534     |  22.6 |  1.54
Comm    | 0.087471   | 7.7029     | 13.722     | 175.9 |  6.62
Output  | 0.090038   | 0.090151   | 0.09143    |   0.0 |  0.08
Modify  | 14.078     | 14.184     | 14.364     |   1.6 | 12.19
Other   |            | 0.8042     |            |       |  0.69

Nlocal:    5.125 ave 29 max 0 min
Histogram: 96 0 0 1 1 5 8 8 8 1
Nghost:    884.008 ave 1695 max 0 min
Histogram: 32 0 32 0 0 0 0 0 32 32
Neighs:    489.516 ave 3459 max 0 min
Histogram: 96 0 0 7 6 5 7 4 2 1

Total # of neighbors = 62658
Ave neighs/atom = 95.5152
Ave special neighs/atom = 8.19512
Neighbor list builds = 2419
Dangerous builds = 0
unfix equil
undump equil


# NVT run
fix equil all nvt temp ${Temp} ${Temp} 100.0 # NVT, nose-hoover 100 fs T relaxation
fix equil all nvt temp 298.0 ${Temp} 100.0 
fix equil all nvt temp 298.0 298.0 100.0 

# CREATE COORDINATE DUMPS FOR EQUILIBRIUM
dump equil all custom ${coords_freq} ${run}.nvt.lammpstrj id type x y z
dump equil all custom 1000 ${run}.nvt.lammpstrj id type x y z
dump equil all custom 1000 0.nvt.lammpstrj id type x y z
dump_modify equil sort  id

# RUN NVT
run		${nSteps_NVT}
run		100000
PPPM initialization ...
  using 12-bit tables for long-range coulomb (src/kspace.cpp:332)
  G vector (1/distance) = 0.15914
  grid = 8 18 8
  stencil order = 5
  estimated absolute RMS force accuracy = 0.0216879
  estimated relative force accuracy = 6.53124e-05
  using double precision KISS FFT
  3d grid and FFT values/proc = 392 16
Neighbor list info ...
  update every 1 steps, delay 10 steps, check yes
  max neighbors/atom: 10000, page size: 100000
  master list distance cutoff = 17
  ghost atom cutoff = 17
  binsize = 8.5, bins = 3 11 3
  3 neighbor lists, perpetual/occasional/extra = 3 0 0
  (1) pair buck/coul/long, perpetual, skip from (3)
      attributes: half, newton off
      pair build: skip
      stencil: none
      bin: none
  (2) pair lj/cut/coul/long, perpetual, skip from (3)
      attributes: half, newton off
      pair build: skip
      stencil: none
      bin: none
  (3) neighbor class addition, perpetual
      attributes: half, newton off
      pair build: half/bin/newtoff
      stencil: half/bin/3d/newtoff
      bin: standard
Per MPI rank memory allocation (min/avg/max) = 19.58 | 19.73 | 20.1 Mbytes
Step Temp Volume Density TotEng PotEng E_bond E_angle E_dihed E_coul E_long E_vdwl Enthalpy Press 
  110000     297.770869   52941.651564       0.467289  -10083.869098  -10665.246050     177.355382     203.916596     106.568696   -6176.665154   -4655.243979    -321.177590   -9866.020470     282.150909 
  111000     300.315043   52941.651564       0.467289  -10095.420312  -10681.764587     187.329588     189.253503      94.490843   -6211.243669   -4652.753339    -288.841513   -9952.938747     184.537784 
  112000     304.485533   52941.651564       0.467289  -10057.819406  -10652.306273     186.898497     190.247267     113.552822   -6214.049243   -4652.086111    -276.869505  -10067.559016     -12.614446 
  113000     291.273599   52941.651564       0.467289  -10109.235662  -10677.927144     187.818067     187.991703     108.100838   -6198.836045   -4652.538032    -310.463676  -10390.757287    -364.618237 
  114000     289.781119   52941.651564       0.467289  -10054.499869  -10620.277387     186.001607     211.547576     104.562407   -6196.958124   -4651.576578    -273.854275   -9741.965989     404.784364 
  115000     303.761027   52941.651564       0.467289  -10075.177259  -10668.249578     165.126213     220.054953      90.928137   -6183.739652   -4651.135512    -309.483718   -9952.982288     158.263206 
  116000     279.069731   52941.651564       0.467289  -10119.837411  -10664.701689     184.125886     192.441898     108.308293   -6209.758624   -4652.022313    -287.796829  -10145.897659     -33.752440 
  117000     301.418625   52941.651564       0.467289  -10072.219528  -10660.718470     176.674211     201.543023     102.889504   -6228.100026   -4650.919906    -262.805276   -9872.604059     258.535878 
  118000     288.379739   52941.651564       0.467289  -10139.432243  -10702.473664     166.255904     192.710806      95.359533   -6221.571413   -4650.958095    -284.270400  -10175.229034     -46.362914 
  119000     305.569606   52941.651564       0.467289  -10098.596577  -10695.200022     160.053733     194.746710      92.452997   -6198.991582   -4654.282921    -289.178958   -9818.067072     363.333273 
  120000     306.525195   52941.651564       0.467289  -10082.650389  -10681.119554     171.786009     184.119525      93.785389   -6187.344305   -4652.403613    -291.062559   -9871.016572     274.101675 
  121000     304.038205   52941.651564       0.467289  -10042.778437  -10636.391927     196.443601     194.142978     105.081987   -6185.242650   -4652.800832    -294.017011  -10520.012445    -618.098956 
  122000     303.778363   52941.651564       0.467289  -10103.128064  -10696.234230     177.100356     174.549020      93.832634   -6166.817713   -4651.461251    -323.437277  -10264.104911    -208.492310 
  123000     310.056742   52941.651564       0.467289  -10047.793313  -10653.157579     187.597435     182.504955     104.054821   -6217.493225   -4650.580566    -259.240999   -9811.607395     305.900809 
  124000     298.254242   52941.651564       0.467289  -10079.173213  -10661.493916     171.998145     194.577969     103.913282   -6172.981884   -4651.525554    -307.475873  -10179.708900    -130.210760 
  125000     286.133785   52941.651564       0.467289  -10095.285468  -10653.941820     174.519787     192.761887     112.057819   -6206.547184   -4651.717286    -275.016843  -10019.069189      98.713004 
  126000     306.612080   52941.651564       0.467289  -10057.472562  -10656.111363     167.436300     207.611313      99.942809   -6185.755423   -4651.420641    -293.925721   -9736.207965     416.092123 
  127000     277.126719   52941.651564       0.467289  -10146.891943  -10687.962624     176.487489     180.535236      96.810218   -6182.590440   -4648.492320    -310.712808  -11021.650813   -1132.961052 
  128000     296.059594   52941.651564       0.467289  -10077.615364  -10655.651169     178.366714     195.204489     101.421820   -6177.496066   -4653.038197    -300.109928   -9889.075913     244.190555 
  129000     298.084750   52941.651564       0.467289  -10060.100030  -10642.089813     185.259630     201.314661     109.490590   -6187.101287   -4653.429876    -297.623532  -10407.611014    -450.085644 
  130000     307.547200   52941.651564       0.467289  -10074.217618  -10674.682176     175.244890     171.618654     103.218917   -6196.524526   -4653.057900    -275.182210   -9825.208707     322.508759 
  131000     281.852696   52941.651564       0.467289  -10126.846094  -10677.143917     172.014953     186.243219     103.337246   -6237.473945   -4650.167347    -251.098043  -10089.515088      48.349982 
  132000     301.658940   52941.651564       0.467289  -10069.912995  -10658.881135     196.758863     187.099042     102.374136   -6234.773352   -4649.683316    -260.656507  -10198.176979    -166.123606 
  133000     301.476078   52941.651564       0.467289  -10107.366201  -10695.977316     167.116530     174.203637     100.504702   -6193.700081   -4651.461594    -292.640510  -10212.112922    -135.664763 
  134000     302.817628   52941.651564       0.467289  -10050.179431  -10641.409828     184.025981     200.455661     100.063111   -6208.479031   -4652.292507    -265.183042   -9703.635003     448.833791 
  135000     316.468354   52941.651564       0.467289  -10050.521203  -10668.403696     179.109607     197.061733      94.980322   -6200.454165   -4651.262002    -287.839191  -10266.236232    -279.387536 
  136000     291.479749   52941.651564       0.467289  -10109.954747  -10679.048724     193.041851     171.020236      96.583636   -6192.908486   -4653.774701    -293.011261  -10184.378764     -96.391720 
  137000     279.971948   52941.651564       0.467289  -10116.330997  -10662.956790     185.911028     173.612827     107.810007   -6216.299143   -4651.410618    -262.580891  -10076.731101      51.288580 
  138000     299.015540   52941.651564       0.467289  -10075.047923  -10658.855007     159.967714     198.688725      97.686366   -6195.939739   -4649.342882    -269.915192   -9875.844177     258.002626 
  139000     314.581956   52941.651564       0.467289  -10058.712004  -10672.911436     175.669423     191.576480      95.272322   -6182.295895   -4652.423541    -300.710224  -10446.737921    -502.559353 
  140000     290.652740   52941.651564       0.467289  -10082.310256  -10649.789555     169.427326     205.691289     100.380897   -6219.613185   -4651.466144    -254.209737   -9790.097026     378.465677 
  141000     293.271756   52941.651564       0.467289  -10085.561071  -10658.153817     186.075874     198.464587      96.232711   -6205.508887   -4651.759713    -281.658390  -10201.530832    -150.200502 
  142000     285.347534   52941.651564       0.467289  -10128.959221  -10686.080474     156.042589     185.916353      93.204665   -6197.672153   -4651.419526    -272.152402   -9965.264059     212.012989 
  143000     308.167428   52941.651564       0.467289  -10077.762803  -10679.438314     160.588440     203.671810      95.689863   -6197.986975   -4651.853495    -289.547957   -9895.956876     235.469502 
  144000     303.560278   52941.651564       0.467289  -10068.658285  -10661.338656     173.947426     176.082403      93.767204   -6179.010084   -4652.404572    -273.721033   -9498.395593     738.586874 
  145000     322.444044   52941.651564       0.467289  -10034.808279  -10664.357892     176.100817     188.691422      88.300170   -6163.822343   -4651.663558    -301.964399   -9991.351499      56.283899 
  146000     308.254833   52941.651564       0.467289  -10090.126919  -10691.973081     174.787499     188.785501      91.877257   -6200.383464   -4652.750207    -294.289667  -10056.116608      44.049119 
  147000     297.600153   52941.651564       0.467289  -10107.133506  -10688.177146     166.972865     201.083878      98.507154   -6215.864128   -4650.985118    -287.891796  -10337.694833    -298.616009 
  148000     315.211309   52941.651564       0.467289  -10044.752400  -10660.180599     194.103423     183.428458      95.913086   -6218.732654   -4651.727800    -263.165111  -10234.693393    -246.005791 
  149000     298.662702   52941.651564       0.467289  -10094.880070  -10677.998264     175.193805     192.537267      92.242213   -6210.800105   -4651.179842    -275.991601  -10128.325053     -43.316924 
  150000     302.174777   52941.651564       0.467289  -10081.412434  -10671.387710     167.285318     192.964380      92.450684   -6194.154982   -4652.060622    -277.872487   -9843.659093     307.930888 
  151000     288.053574   52941.651564       0.467289  -10105.841078  -10668.245685     183.018408     179.085398      94.037619   -6199.138709   -4649.314868    -275.933533  -10082.822961      29.812364 
  152000     299.537745   52941.651564       0.467289  -10089.286864  -10674.113517     174.476701     192.075351      98.666254   -6214.719463   -4651.488439    -273.123922   -9580.780639     658.601778 
  153000     296.867039   52941.651564       0.467289  -10092.910705  -10672.522992     178.742479     198.575175      95.890890   -6176.530390   -4652.400575    -316.800571  -10381.393647    -373.634322 
  154000     308.952148   52941.651564       0.467289  -10042.301221  -10645.508843     183.116860     199.569951     113.158227   -6198.582295   -4654.937785    -287.833801   -9982.322558      77.682538 
  155000     284.319752   52941.651564       0.467289  -10121.420677  -10676.535257     180.982214     191.842280      87.436688   -6202.233811   -4651.447838    -283.114789  -10082.080348      50.952396 
  156000     296.158406   52941.651564       0.467289  -10088.000965  -10666.229695     183.266516     194.334863      96.685443   -6231.242541   -4649.415854    -259.858121   -9808.658205     361.796237 
  157000     283.846903   52941.651564       0.467289  -10111.192643  -10665.384017     165.952205     197.974193      96.734811   -6194.087922   -4650.909443    -281.047860  -10161.214324     -64.786557 
  158000     290.082203   52941.651564       0.467289  -10090.314883  -10656.680248     165.327775     204.979253      95.971502   -6198.979807   -4652.298764    -271.680207   -9772.218107     411.989258 
  159000     299.826080   52941.651564       0.467289  -10099.538219  -10684.927826     172.690076     182.387237      92.872186   -6175.867452   -4652.957458    -304.052416  -10077.222125      28.903126 
  160000     301.836397   52941.651564       0.467289  -10099.121172  -10688.435784     177.726114     179.197555      94.645545   -6179.902278   -4652.624278    -307.478443   -9975.624880     159.948638 
  161000     297.536833   52941.651564       0.467289  -10108.694155  -10689.614166     173.170686     188.112481      91.867252   -6158.429831   -4654.720341    -329.614413  -10188.952946    -103.948742 
  162000     293.232802   52941.651564       0.467289  -10107.366200  -10679.882892     177.513140     186.802790     108.950941   -6206.485843   -4652.050023    -294.613897  -10406.223237    -387.070533 
  163000     301.146095   52941.651564       0.467289  -10062.877929  -10650.844774     189.446801     191.228745     100.890321   -6193.005294   -4651.860422    -287.544925   -9910.555531     197.283331 
  164000     297.252268   52941.651564       0.467289  -10073.443719  -10653.808137     192.056014     190.280924     108.339018   -6203.262237   -4651.652187    -289.569670  -10157.191090    -108.467044 
  165000     300.918385   52941.651564       0.467289  -10076.920847  -10664.443104     178.184393     188.865128     106.134144   -6191.349419   -4652.884355    -293.392995  -10167.439972    -117.237614 
  166000     291.196239   52941.651564       0.467289  -10126.431845  -10694.972288     170.396507     179.096819     109.230567   -6181.026409   -4653.640594    -319.029177  -10034.704115     118.802962 
  167000     291.012963   52941.651564       0.467289  -10108.426365  -10676.608974     185.233780     185.209881     117.957674   -6209.692158   -4653.012492    -302.305658  -10392.828519    -368.349010 
  168000     298.258746   52941.651564       0.467289  -10061.105710  -10643.435208     187.414068     192.612778     108.490631   -6229.249459   -4651.397073    -251.306153  -10161.314807    -129.787772 
  169000     296.719320   52941.651564       0.467289  -10118.217293  -10697.541167     170.935021     161.854306     102.685285   -6165.275328   -4651.838341    -315.902110   -9743.774510     484.966890 
  170000     303.193619   52941.651564       0.467289  -10069.011988  -10660.976482     183.984845     185.864569     101.684896   -6186.226366   -4653.600889    -292.683538   -9854.329751     278.049896 
  171000     296.943724   52941.651564       0.467289  -10098.654543  -10678.416551     191.439686     182.165519     100.746626   -6219.427032   -4653.711899    -279.629451  -10073.742138      32.265788 
  172000     316.976299   52941.651564       0.467289  -10068.755056  -10687.629277     188.766594     171.166757      95.151294   -6231.942930   -4652.146410    -258.624581  -10115.027892     -59.931169 
  173000     299.186053   52941.651564       0.467289  -10067.034171  -10651.174170     197.294938     191.295812     103.092756   -6216.293007   -4650.795549    -275.769120  -10117.610235     -65.504579 
  174000     291.979218   52941.651564       0.467289  -10075.162984  -10645.232138     175.698863     210.341213      99.052965   -6226.829315   -4652.159999    -251.335865   -9710.868997     471.822479 
  175000     307.972896   52941.651564       0.467289  -10069.808381  -10671.104081     169.948303     202.515935     101.231583   -6215.762068   -4652.877519    -276.160316   -9807.497907     339.736538 
  176000     298.918702   52941.651564       0.467289  -10127.183359  -10710.801374     174.703043     181.040266      97.963182   -6241.257555   -4652.224510    -271.025800  -10051.475742      98.054200 
  177000     287.753173   52941.651564       0.467289  -10066.342530  -10628.160625     196.652631     199.768625     111.049919   -6205.039453   -4649.866515    -280.725831  -10778.304759    -922.111800 
  178000     287.946327   52941.651564       0.467289  -10086.179826  -10648.375041     185.904880     192.251464     100.341797   -6198.314504   -4650.509190    -278.049488  -10215.052273    -166.911669 
  179000     290.873415   52941.651564       0.467289  -10049.211361  -10617.121512     190.735382     203.580198     108.444692   -6172.006538   -4652.165853    -295.709394  -10158.968725    -142.154395 
  180000     288.333075   52941.651564       0.467289  -10062.994015  -10625.944329     182.724875     213.506402     104.357695   -6203.840975   -4652.145113    -270.547213   -9788.132968     355.991659 
  181000     289.848130   52941.651564       0.467289  -10098.702350  -10664.610703     180.945462     199.701865      91.493931   -6227.108733   -4652.000702    -257.642527   -9839.330246     335.930851 
  182000     315.332581   52941.651564       0.467289  -10049.898205  -10665.563180     199.624767     190.287796      96.195041   -6170.719479   -4652.970135    -327.981170  -10563.685591    -665.441777 
  183000     291.627421   52941.651564       0.467289  -10119.022610  -10688.404905     185.043314     184.393564      91.407774   -6218.132527   -4650.544126    -280.572904  -10322.212401    -263.165231 
  184000     311.999785   52941.651564       0.467289  -10050.206161  -10659.364082     191.903806     200.147848      97.888172   -6198.096120   -4651.228226    -299.979562   -9875.652852     226.076130 
  185000     292.145842   52941.651564       0.467289  -10077.634318  -10648.028795     205.216121     183.555889     107.853639   -6203.725453   -4651.045243    -289.883747  -10074.289333       4.332323 
  186000     286.818669   52941.651564       0.467289  -10127.860163  -10687.853704     192.824040     176.993126     102.666089   -6186.190397   -4651.302096    -322.844466  -10650.967238    -677.512354 
  187000     288.110816   52941.651564       0.467289  -10088.210861  -10650.727229     186.820760     200.415232     107.454226   -6167.961731   -4654.382305    -323.073411   -9977.710287     143.116979 
  188000     301.696478   52941.651564       0.467289  -10072.049410  -10661.090841     192.843240     186.533086     106.331771   -6143.816341   -4651.854082    -351.128514  -10567.935035    -642.255962 
  189000     299.853901   52941.651564       0.467289  -10070.380124  -10655.824050     185.106562     191.260259     110.289899   -6162.334379   -4654.331957    -325.814435  -10018.988025      66.561482 
  190000     294.671308   52941.651564       0.467289  -10120.901916  -10696.227189     168.927331     191.319215      99.899099   -6175.239479   -4653.742106    -327.391249   -9898.681860     287.812650 
  191000     294.776509   52941.651564       0.467289  -10096.545402  -10672.076072     179.958666     202.515535      92.522801   -6219.037685   -4649.480331    -278.555059  -10253.534778    -203.327859 
  192000     282.732565   52941.651564       0.467289  -10125.880101  -10677.895807     172.678336     185.735230     105.887316   -6228.099540   -4650.678513    -263.418637  -10069.264204      73.327185 
  193000     289.960250   52941.651564       0.467289  -10100.418739  -10666.545999     182.586490     201.125540     103.518375   -6226.368283   -4653.338445    -274.069675   -9632.815093     605.626003 
  194000     309.874591   52941.651564       0.467289  -10077.559794  -10682.568422     184.795920     190.359747     101.787736   -6234.061083   -4651.501136    -273.949606  -10028.347063      63.738831 
  195000     291.147630   52941.651564       0.467289  -10116.088313  -10684.533851     193.974842     191.137568      90.113660   -6215.499504   -4651.698643    -292.561774  -10137.501553     -27.733776 
  196000     292.594025   52941.651564       0.467289  -10095.467913  -10666.737435     191.267764     193.572290     103.076258   -6203.740359   -4652.506342    -298.407047  -10400.665297    -395.282358 
  197000     280.608610   52941.651564       0.467289  -10094.450432  -10642.319264     195.297930     200.962610      96.990762   -6197.530587   -4651.450744    -286.589235   -9973.139806     157.117829 
  198000     295.776783   52941.651564       0.467289  -10099.894078  -10677.377715     173.340581     194.539431      98.149381   -6209.227969   -4651.604228    -282.574911   -9724.788986     485.824693 
  199000     282.261210   52941.651564       0.467289  -10099.087733  -10650.183151     194.578124     193.009824     103.926948   -6168.229024   -4653.933972    -319.535051  -10135.667817     -47.377411 
  200000     312.834323   52941.651564       0.467289  -10054.785111  -10665.572410     203.509364     191.600240      99.395893   -6189.585417   -4654.142701    -316.349790  -10161.409347    -138.096463 
  201000     307.555154   52941.651564       0.467289  -10120.196068  -10720.676157     185.604176     169.198934      85.848470   -6233.459115   -4652.151860    -275.716762   -9818.660017     390.540312 
  202000     305.601368   52941.651564       0.467289  -10067.859651  -10664.525108     171.544940     206.533108     104.923360   -6227.239843   -4649.315651    -270.971023   -9990.239369     100.531425 
  203000     290.522507   52941.651564       0.467289  -10104.912889  -10672.137917     184.225137     193.478207     106.056781   -6236.919220   -4651.468653    -267.510168   -9997.359647     139.299684 
  204000     299.890730   52941.651564       0.467289  -10073.513139  -10659.028971     191.814956     188.025502      95.287920   -6201.504165   -4652.964680    -279.688504   -9847.950241     292.142197 
  205000     305.386374   52941.651564       0.467289  -10095.000982  -10691.246679     181.026601     202.128603      93.632879   -6238.318538   -4652.029884    -277.686340  -10127.028056     -41.480490 
  206000     304.204343   52941.651564       0.467289  -10046.313464  -10640.251327     200.467972     207.835615     105.934932   -6213.643047   -4651.500320    -289.346479   -9983.294602      81.620111 
  207000     287.892254   52941.651564       0.467289  -10120.863613  -10682.953254     167.816947     197.330990     106.251292   -6200.285854   -4653.950084    -300.116545  -10009.203966     144.618174 
  208000     317.546808   52941.651564       0.467289  -10056.727243  -10676.715343     201.243466     188.316538      98.351255   -6215.314354   -4652.629540    -296.682708   -9977.062394     103.179487 
  209000     284.283942   52941.651564       0.467289  -10134.390460  -10689.435123     191.766020     185.425101      92.201945   -6230.450195   -4651.017198    -277.360796  -10439.454456    -395.109599 
  210000     283.248566   52941.651564       0.467289  -10101.390892  -10654.414055     192.562349     199.579788      93.497835   -6234.602992   -4650.554440    -254.896596  -10269.146734    -217.272258 
Loop time of 112.73 on 128 procs for 100000 steps with 656 atoms

Performance: 76.643 ns/day, 0.313 hours/ns, 887.076 timesteps/s
99.9% CPU use with 128 MPI tasks x 1 OpenMP threads

MPI task timing breakdown:
Section |  min time  |  avg time  |  max time  |%varavg| %total
---------------------------------------------------------------
Pair    | 0.025242   | 11.079     | 54.732     | 577.4 |  9.83
Bond    | 0.012362   | 0.7992     | 3.512      | 152.6 |  0.71
Kspace  | 32.576     | 81.269     | 100.56     | 257.0 | 72.09
Neigh   | 1.12       | 1.4501     | 1.8423     |  22.1 |  1.29
Comm    | 0.07531    | 7.8447     | 13.964     | 178.1 |  6.96
Output  | 0.07946    | 0.079556   | 0.081076   |   0.0 |  0.07
Modify  | 9.3556     | 9.4406     | 9.517      |   1.0 |  8.37
Other   |            | 0.7679     |            |       |  0.68

Nlocal:    5.125 ave 26 max 0 min
Histogram: 96 0 0 0 0 3 6 7 10 6
Nghost:    879.992 ave 1691 max 0 min
Histogram: 32 0 32 0 0 0 0 0 32 32
Neighs:    489.141 ave 2850 max 0 min
Histogram: 96 0 0 2 4 7 4 4 7 4

Total # of neighbors = 62610
Ave neighs/atom = 95.4421
Ave special neighs/atom = 8.19512
Neighbor list builds = 2051
Dangerous builds = 0
unfix equil
undump equil

# WRITE RESTART FILES, CLEANUP, AND EXIT
write_restart   extend.end.restart
PPPM initialization ...
  using 12-bit tables for long-range coulomb (src/kspace.cpp:332)
  G vector (1/distance) = 0.15914
  grid = 8 18 8
  stencil order = 5
  estimated absolute RMS force accuracy = 0.0216879
  estimated relative force accuracy = 6.53124e-05
  using double precision KISS FFT
  3d grid and FFT values/proc = 392 16
Neighbor list info ...
  update every 1 steps, delay 10 steps, check yes
  max neighbors/atom: 10000, page size: 100000
  master list distance cutoff = 17
  ghost atom cutoff = 17
  binsize = 8.5, bins = 3 11 3
  3 neighbor lists, perpetual/occasional/extra = 3 0 0
  (1) pair buck/coul/long, perpetual, skip from (3)
      attributes: half, newton off
      pair build: skip
      stencil: none
      bin: none
  (2) pair lj/cut/coul/long, perpetual, skip from (3)
      attributes: half, newton off
      pair build: skip
      stencil: none
      bin: none
  (3) neighbor class addition, perpetual
      attributes: half, newton off
      pair build: half/bin/newtoff
      stencil: half/bin/3d/newtoff
      bin: standard
write_data      extend.end.data pair ii
PPPM initialization ...
  using 12-bit tables for long-range coulomb (src/kspace.cpp:332)
  G vector (1/distance) = 0.15914
  grid = 8 18 8
  stencil order = 5
  estimated absolute RMS force accuracy = 0.0216879
  estimated relative force accuracy = 6.53124e-05
  using double precision KISS FFT
  3d grid and FFT values/proc = 392 16
Neighbor list info ...
  update every 1 steps, delay 10 steps, check yes
  max neighbors/atom: 10000, page size: 100000
  master list distance cutoff = 17
  ghost atom cutoff = 17
  binsize = 8.5, bins = 3 11 3
  3 neighbor lists, perpetual/occasional/extra = 3 0 0
  (1) pair buck/coul/long, perpetual, skip from (3)
      attributes: half, newton off
      pair build: skip
      stencil: none
      bin: none
  (2) pair lj/cut/coul/long, perpetual, skip from (3)
      attributes: half, newton off
      pair build: skip
      stencil: none
      bin: none
  (3) neighbor class addition, perpetual
      attributes: half, newton off
      pair build: half/bin/newtoff
      stencil: half/bin/3d/newtoff
      bin: standard
unfix           averages

# Update run number
variable sub equal (v_run+1)
shell sed -i /variable.*run.*index/s/${run}/${sub}/g eval.in.init
shell sed -i /variable.*run.*index/s/0/${sub}/g eval.in.init
shell sed -i /variable.*run.*index/s/0/1/g eval.in.init
shell echo "Run ${run} finished." >> ${run}.success
shell echo "Run ${run} finished." >> 0.success
Total wall time: 0:04:00
